Route #1: 22 36 29 43 9 38 13 14 41 
Route #2: 31 15 27 19 2 
Route #3: 20 16 42 11 10 26 34 
Route #4: 8 7 28 33 37 32 21 5 24 
Route #5: 40 35 18 1 30 23 
Route #6: 6 25 3 12 39 17 4 
cost 1059.11
execution_time 20.056
